100 65894

 884 84
419 694
488 391
78 591
826 215
801 526
270 215
674 403
701 128
759 822
900 477
728 760
315 404
925 29
851 792
902 338
889 831
993 714
945 361
168 569
339 392
193 218
453 574
283 669
336 202
390 17
525 322
240 518
832 570
958 325
483 412
659 318
716 681
592 965
891 82
555 474
458 468
89 425
660 945
95 731
452 689
428 204
151 583
514 387
376 778
22 98
883 345
313 803
997 208
840 514
519 636
206 792
952 586
375 166
451 22
626 154
784 939
595 439
179 295
210 219
500 669
464 495
840 230
124 20
993 987
113 553
12 950
126 148
565 108
331 403
901 596
283 483
140 367
401 834
902 414
97 309
517 802
569 918
924 835
846 134
69 719
118 283
888 778
59 73
33 481
318 352
50 560
880 326
489 745
19 443
726 100
197 59
891 508
450 258
990 413
559 452
679 65
452 595
289 154
141 985
